&CONTROL
  calculation = 'scf',
  dt = 20.67055,
!  nstep = 50,
  pseudo_dir = '/home/eric/src/Libra/for_develop/pyxaid2/example/pp',
  outdir = './',
  prefix = 'x0',
  disk_io = 'low',
  wf_collect = .true.
/

&SYSTEM
  ibrav = 0,
  celldm(1) = 1.89,
  nat = 8,
  ntyp = 2,
  nspin = 2,
  nbnd = 100,
  ecutwfc = 50,
  tot_charge = 0.0,
  occupations = 'smearing',
  starting_magnetization(1) = 0.01,
  smearing = 'gaussian',
  degauss = 0.005,
  nosym = .true.,
  !lspinorb=.true.,
  !noncolin = .true.,
/

&ELECTRONS
  electron_maxstep = 300,
  conv_thr = 1.D-5,
  mixing_beta = 0.45,
/

&IONS
  ion_dynamics = 'verlet',
  ion_temperature = 'andersen',
  tempw = 300.00 ,
  nraise = 1,
/


ATOMIC_SPECIES
 Ga   69.723   Ga.pbe-dn-rrkjus_psl.0.2.UPF
 As   74.921   As.pbe-n-rrkjus_psl.0.2.UPF



K_POINTS automatic
1 1 1 0 0 0
     
CELL_PARAMETERS
   5.745328496   0.000000000   0.000000000
   0.000000000   5.745329803   0.000000000
   0.000000000   0.000000000   5.745329473 

